8   9   3
3   3   1   14   2   14   3   14   3   4   14   5   14   6   14   3   7   21   8   21   9   21   
3   3   1   19   2   19   3   19   3   4   17   5   17   6   17   3   7   30   8   30   9   30   
3   3   1   14   2   14   3   14   3   4   29   5   29   6   29   3   7   21   8   21   9   21   
3   3   1   15   2   15   3   15   3   4   19   5   19   6   19   3   7   11   8   11   9   11   
3   3   1   22   2   22   3   22   3   4   11   5   11   6   11   3   7   13   8   13   9   13   
3   3   1   17   2   17   3   17   3   4   25   5   25   6   25   3   7   10   8   10   9   10   
3   3   1   30   2   30   3   30   3   4   27   5   27   6   27   3   7   29   8   29   9   29   
3   3   1   18   2   18   3   18   3   4   10   5   10   6   10   3   7   11   8   11   9   11   
